========================================================== 
File name: C:\DEGR\assets\definitions\MSRCPSP_Gen\500_10_512_10_B.def
Creation date: Sat May 06 09:15:27 CEST 2023
Website: http://imopse.ii.pwr.edu.pl/ 
Reference: 
Myszkowski P. B., Skowronski M. E., Olech L., Oslizlo K., 
Hybrid Ant Colony Optimization in solving Multi-Skill Resource-Constrained Project Scheduling Problem, 
Soft Computing, DOI: DOI 10.1007/s00500-014-1455-x 
========================================================== 
General characteristics: 
Tasks: 500
Resources: 10
Precedence relations: 509
Number of skill types: 10
========================================================== 
ResourceID 	 Salary 	 Skills 
1	 	 	22.7	 	 Q1: 2 	  Q9: 0 	  Q0: 2 	  Q7: 3 	  Q6: 2 	  Q3: 1 	  Q4: 3 	  Q8: 1 	  Q2: 2 	 
2	 	 	72.1	 	 Q9: 2 	  Q2: 2 	  Q5: 2 	  Q1: 0 	  Q8: 1 	  Q7: 1 	  Q0: 2 	 
3	 	 	90.7	 	 Q1: 0 	  Q6: 3 	  Q4: 3 	  Q2: 2 	  Q0: 2 	  Q8: 3 	  Q9: 1 	  Q7: 0 	  Q5: 0 	 
4	 	 	47.6	 	 Q9: 3 	  Q7: 1 	  Q5: 0 	  Q0: 3 	 
5	 	 	96.0	 	 Q9: 1 	  Q0: 2 	  Q1: 3 	  Q7: 2 	  Q8: 2 	  Q2: 0 	  Q4: 3 	  Q6: 3 	 
6	 	 	71.0	 	 Q7: 2 	  Q1: 3 	  Q2: 1 	  Q6: 2 	  Q4: 1 	  Q9: 2 	  Q3: 1 	  Q0: 1 	  Q8: 0 	 
7	 	 	94.3	 	 Q7: 3 	  Q0: 3 	  Q9: 2 	  Q1: 0 	  Q2: 1 	  Q8: 3 	  Q3: 0 	  Q6: 1 	  Q5: 0 	 
8	 	 	86.9	 	 Q8: 2 	  Q5: 0 	 
9	 	 	21.8	 	 Q3: 0 	  Q1: 3 	  Q5: 1 	  Q4: 0 	 
10	 	 	82.1	 	 Q6: 2 	  Q1: 2 	  Q0: 0 	  Q3: 1 	  Q7: 3 	  Q5: 0 	  Q2: 1 	  Q9: 3 	  Q8: 3 	 
========================================================== 
TaskID 	 Duration 	 Skill 	 Predecessor IDs 
1	13	Q9:	0
2	27	Q0:	1
3	35	Q1:	0
4	21	Q7:	3
5	17	Q7:	1
6	33	Q6:	2
7	31	Q7:	1
8	11	Q0:	2
9	31	Q7:	0
10	14	Q8:	0
11	17	Q9:	0
12	27	Q9:	1
13	29	Q2:	0	1
14	12	Q9:	0
15	10	Q4:	3
16	34	Q9:	3
17	20	Q0:	1
18	11	Q5:	0
19	10	Q0:	3
20	13	Q1:	0
21	31	Q4:	3
22	32	Q3:	0
23	18	Q4:	0
24	23	Q8:	1
25	16	Q1:	2
26	31	Q8:	1
27	39	Q8:	1	11
28	38	Q7:	2
29	15	Q7:	1
30	31	Q7:	1
31	9	Q9:	3	3
32	31	Q6:	1
33	29	Q6:	2
34	15	Q3:	0
35	36	Q5:	0
36	17	Q6:	1
37	40	Q7:	0
38	20	Q9:	1
39	22	Q7:	3
40	15	Q7:	2
41	21	Q7:	0
42	26	Q8:	0	3
43	10	Q4:	0
44	13	Q1:	0	16
45	16	Q8:	1
46	18	Q6:	1
47	38	Q8:	0
48	29	Q6:	3
49	27	Q2:	0	45	15
50	11	Q8:	2
51	36	Q2:	0
52	19	Q6:	2
53	36	Q7:	0	50
54	17	Q3:	0
55	15	Q3:	1
56	33	Q5:	2	46	52
57	9	Q8:	2
58	26	Q2:	1
59	16	Q1:	0
60	39	Q1:	0
61	21	Q8:	1
62	23	Q3:	1
63	9	Q0:	2	37
64	35	Q9:	3	14
65	20	Q6:	1
66	25	Q7:	3
67	30	Q9:	2
68	26	Q8:	0
69	20	Q2:	2
70	15	Q6:	1
71	34	Q3:	0
72	26	Q4:	0
73	29	Q4:	0
74	40	Q9:	1
75	14	Q0:	3
76	21	Q8:	1
77	15	Q7:	1
78	25	Q3:	1	73
79	25	Q0:	3
80	23	Q6:	3
81	19	Q2:	0
82	12	Q0:	1
83	27	Q1:	0
84	25	Q4:	3
85	11	Q6:	2
86	19	Q0:	2	80
87	26	Q7:	1	22
88	33	Q0:	2
89	28	Q5:	0
90	32	Q2:	2
91	33	Q6:	1
92	18	Q3:	1
93	9	Q2:	2
94	23	Q4:	1
95	31	Q2:	2
96	29	Q8:	2	6
97	27	Q5:	2
98	35	Q9:	0
99	27	Q8:	0	10
100	16	Q0:	1
101	22	Q4:	1
102	13	Q3:	0
103	12	Q6:	1
104	21	Q9:	1
105	9	Q5:	2
106	20	Q1:	3
107	15	Q5:	2	62	104
108	21	Q2:	2
109	33	Q0:	3	11
110	15	Q7:	3	35
111	11	Q0:	1	76	77
112	30	Q4:	1
113	13	Q2:	1
114	40	Q8:	2
115	36	Q3:	0
116	19	Q4:	1
117	15	Q1:	2
118	16	Q4:	0	75
119	22	Q1:	3	105
120	14	Q0:	2
121	36	Q8:	1
122	30	Q9:	0
123	22	Q8:	3
124	27	Q0:	2	91
125	39	Q4:	0
126	30	Q1:	2
127	31	Q5:	0	23
128	15	Q3:	1
129	11	Q4:	3
130	38	Q7:	3
131	32	Q7:	2	94
132	17	Q6:	1	50
133	16	Q7:	1
134	16	Q6:	1	30
135	21	Q7:	3	72	102	45
136	31	Q7:	1
137	13	Q7:	0
138	26	Q1:	0	79
139	32	Q4:	1	126
140	40	Q9:	1
141	9	Q9:	1	34
142	16	Q7:	1	88	65
143	22	Q4:	3	40	108
144	21	Q2:	1
145	18	Q7:	0
146	9	Q7:	2
147	16	Q8:	1
148	10	Q2:	1
149	17	Q7:	0	56
150	16	Q4:	1	61
151	27	Q6:	2	147
152	28	Q0:	0
153	12	Q0:	2
154	34	Q8:	0
155	32	Q4:	0	28
156	19	Q7:	2	77	119
157	18	Q1:	0
158	14	Q5:	0
159	26	Q8:	0	84	118
160	35	Q0:	3
161	15	Q8:	1	58
162	15	Q6:	3	113	96
163	35	Q1:	0
164	37	Q6:	1
165	36	Q4:	3	16
166	20	Q7:	1	99
167	25	Q1:	2
168	30	Q3:	0
169	20	Q2:	2	122
170	26	Q0:	1	126
171	21	Q4:	0
172	24	Q2:	1
173	17	Q2:	1
174	20	Q9:	3
175	16	Q4:	3
176	9	Q8:	3
177	11	Q8:	0
178	14	Q2:	2
179	39	Q9:	2	139	77
180	12	Q3:	1	142	68
181	29	Q5:	2	96	132
182	15	Q7:	1	110	177
183	16	Q6:	3	62	84	182
184	15	Q2:	1
185	15	Q7:	1
186	34	Q5:	1
187	19	Q3:	0
188	39	Q3:	1
189	12	Q3:	1
190	39	Q9:	1	59
191	19	Q5:	1
192	10	Q0:	0	18
193	19	Q9:	3
194	36	Q8:	3
195	34	Q9:	0	142
196	21	Q0:	1	17
197	24	Q2:	2
198	39	Q4:	1	121
199	15	Q5:	2	148	71	162
200	19	Q8:	1
201	33	Q7:	2	80
202	38	Q8:	0
203	21	Q2:	0
204	17	Q6:	1	91
205	37	Q5:	2
206	17	Q7:	2
207	40	Q1:	0
208	36	Q0:	3
209	19	Q5:	2
210	27	Q8:	1	122
211	34	Q4:	3	136
212	38	Q6:	1	158	13	23
213	14	Q5:	0
214	30	Q9:	3	55
215	24	Q3:	0	78
216	23	Q9:	0
217	23	Q6:	2
218	12	Q2:	1
219	23	Q8:	0	41
220	19	Q0:	3
221	10	Q2:	1	190
222	36	Q1:	2
223	27	Q0:	0	215
224	19	Q3:	0	118
225	22	Q6:	3	100
226	27	Q6:	2	130
227	16	Q6:	2	86
228	10	Q1:	3	18
229	35	Q7:	2	166	180
230	14	Q8:	0
231	25	Q1:	0	190
232	29	Q4:	1
233	17	Q4:	1	58
234	16	Q6:	3	192
235	17	Q7:	1	71
236	33	Q7:	3	156
237	17	Q9:	1	62
238	27	Q3:	1
239	32	Q6:	1	97
240	19	Q0:	1	226
241	13	Q7:	3	152	56
242	14	Q9:	3	1
243	29	Q3:	1
244	36	Q1:	3	96	226	95
245	35	Q6:	2	237	241
246	10	Q5:	0	221
247	36	Q0:	3	84
248	20	Q7:	3	205	108
249	10	Q0:	1	113	9	66
250	32	Q7:	2	115
251	36	Q9:	2	214
252	11	Q7:	1	246
253	33	Q2:	0	206
254	38	Q7:	2
255	19	Q6:	3	133
256	20	Q9:	3	236	102	108
257	38	Q0:	2
258	17	Q9:	2
259	27	Q6:	1
260	17	Q9:	1	85	86	121
261	33	Q9:	0
262	16	Q9:	2	123
263	30	Q9:	0
264	33	Q7:	1	46	29
265	12	Q3:	0
266	11	Q7:	2	75	159
267	33	Q9:	3	172
268	37	Q7:	0	256	156
269	9	Q9:	3
270	21	Q6:	2
271	28	Q6:	1
272	14	Q0:	0	42	148
273	38	Q6:	1
274	26	Q7:	3
275	33	Q7:	1	264
276	33	Q0:	0	240
277	25	Q9:	1
278	39	Q5:	0	117
279	13	Q3:	1	109
280	31	Q0:	3
281	24	Q7:	2	86	150
282	11	Q2:	0	10
283	38	Q8:	2	175
284	40	Q0:	2	86	66
285	39	Q9:	3	106	195
286	37	Q1:	0	262	103
287	25	Q6:	1
288	17	Q8:	2	150
289	10	Q6:	2
290	10	Q5:	1
291	36	Q2:	1
292	11	Q3:	0	263
293	23	Q9:	1	283
294	38	Q1:	3	287	70
295	33	Q6:	2
296	17	Q0:	1	159	41
297	28	Q9:	1	7
298	9	Q0:	1
299	14	Q7:	0	126	147
300	21	Q9:	0	95	128
301	23	Q0:	3	247	115
302	32	Q5:	0	280	291	181
303	10	Q2:	2	232	117
304	40	Q6:	1	201	104
305	28	Q7:	0	287	30	102	228	58
306	16	Q7:	3	72
307	30	Q1:	0	273
308	19	Q9:	0	175
309	9	Q3:	1
310	9	Q4:	1
311	20	Q4:	3
312	31	Q5:	1	161	48
313	28	Q4:	0	87	165	257
314	19	Q2:	2	233	44
315	36	Q9:	3	298	120
316	23	Q8:	3	215	232
317	16	Q9:	1	296	47
318	39	Q0:	2	74	170
319	29	Q2:	1	261
320	27	Q4:	0	19	275	91
321	38	Q6:	1
322	29	Q9:	2	124
323	29	Q9:	3	159	15
324	36	Q1:	0	27
325	15	Q3:	1	6	213
326	22	Q2:	2	203	45
327	10	Q7:	1	207
328	14	Q5:	1
329	10	Q9:	0	124
330	15	Q2:	0
331	30	Q7:	1
332	29	Q4:	1	242	150	5	162
333	19	Q9:	3	1	168
334	30	Q4:	0	145	217	205
335	33	Q5:	2	210	6
336	9	Q9:	2	132
337	17	Q3:	1
338	9	Q2:	2
339	14	Q4:	3	34
340	39	Q1:	2	240	49
341	21	Q4:	3	234
342	36	Q3:	0	158	157
343	13	Q0:	3	277	303
344	36	Q7:	2	223	59
345	23	Q0:	1	230	252
346	35	Q0:	2
347	24	Q1:	0
348	26	Q7:	0	272
349	33	Q7:	2	71
350	33	Q5:	0	27	42
351	27	Q6:	3	8	246	272
352	33	Q9:	2	315	294
353	20	Q9:	0	218	309	277
354	37	Q2:	0
355	10	Q9:	2
356	11	Q9:	2
357	13	Q0:	0	51
358	26	Q2:	0	55	160
359	23	Q2:	2	12
360	32	Q7:	0	193	14
361	37	Q8:	2	123	28	246	149
362	30	Q8:	3	43	35	260
363	9	Q5:	1	188	266
364	29	Q0:	0	70	353	245	298
365	36	Q7:	0
366	18	Q9:	3	346
367	28	Q7:	1	336
368	14	Q0:	1	45	13	245	156
369	32	Q9:	3	34	344	19
370	33	Q2:	1
371	29	Q0:	3	282
372	37	Q3:	1
373	22	Q7:	1	259	343
374	15	Q1:	2	39	91	245	100
375	16	Q7:	1	13	224
376	38	Q2:	2	161
377	31	Q0:	1	152
378	39	Q7:	1	138	328
379	37	Q5:	1	79
380	10	Q1:	0	300	330
381	27	Q8:	2	330
382	31	Q2:	2	334	64	142
383	31	Q5:	2	73
384	33	Q9:	0	151	137
385	33	Q2:	0	185
386	28	Q3:	1
387	18	Q7:	2	221	23	369
388	33	Q4:	0	172	303
389	31	Q0:	1	282
390	35	Q7:	1
391	12	Q5:	1	250
392	28	Q2:	1	147	277
393	15	Q4:	3	273	390
394	25	Q0:	2	286	13	84
395	31	Q7:	1
396	18	Q0:	2	193
397	36	Q3:	1	186
398	16	Q6:	2	300	179	319	18
399	36	Q0:	1	100
400	20	Q0:	3	5	200
401	31	Q0:	1	16	179
402	14	Q0:	1	259
403	24	Q9:	1	258	238	59
404	23	Q0:	2	309
405	24	Q8:	0	29	287
406	21	Q5:	1	301	122	42
407	23	Q4:	1	237	30	344
408	23	Q3:	1	320	201	394	244
409	17	Q8:	3	119
410	38	Q2:	0	29	17	229	76
411	29	Q8:	2
412	35	Q1:	3
413	32	Q3:	1
414	24	Q4:	0
415	18	Q1:	2	120
416	11	Q9:	3	154
417	15	Q7:	2	128	15
418	23	Q0:	3	80	297
419	16	Q9:	1	311	168
420	33	Q4:	1	124	229
421	31	Q8:	1	196	340	44
422	19	Q8:	1	312	45	41
423	20	Q6:	2	7	142	54
424	27	Q2:	1	16
425	21	Q8:	1
426	32	Q6:	1
427	39	Q2:	1	139
428	36	Q1:	0	255	329	97	387
429	19	Q0:	1	253	93
430	13	Q9:	3	167
431	30	Q0:	2	410	299
432	40	Q6:	1	387	355	331
433	39	Q0:	1	172	283	124
434	10	Q1:	0	280	407
435	11	Q7:	0	386
436	30	Q0:	0	390	141
437	27	Q6:	1	31	172	329	33	381
438	12	Q2:	0	333	172	288	145
439	25	Q5:	2
440	16	Q6:	1	265
441	11	Q2:	2	155
442	14	Q3:	1	141	414
443	11	Q4:	0	193	86	290
444	26	Q4:	1	410	118	441	203
445	9	Q2:	1	345	329	361
446	33	Q0:	1	177	268	223
447	14	Q7:	1	32
448	30	Q4:	0	89
449	34	Q9:	3
450	25	Q0:	1	325	289
451	21	Q8:	0	322
452	23	Q9:	0
453	20	Q0:	3	122	253
454	20	Q0:	0	241
455	39	Q5:	1	269	389
456	40	Q0:	3	440	287
457	12	Q0:	0	229
458	34	Q8:	2	208
459	20	Q0:	0	61	412
460	34	Q7:	3
461	11	Q3:	1	312
462	32	Q7:	1	391	242	190
463	39	Q1:	0	237	255	273	110	156
464	30	Q0:	0	402	272
465	38	Q3:	0
466	32	Q5:	1	424	28
467	25	Q7:	1	137	132
468	11	Q1:	3	193	428
469	25	Q9:	2	170
470	18	Q1:	2	37
471	26	Q5:	0	39
472	18	Q5:	0	360	43
473	11	Q2:	0
474	33	Q5:	1	105
475	36	Q7:	1	457
476	21	Q0:	2	61
477	34	Q3:	1	273	201
478	18	Q7:	0
479	24	Q4:	3	190	446
480	31	Q3:	1	225	119	189
481	23	Q1:	2	167	286
482	26	Q0:	3	181
483	38	Q0:	1	473	23
484	33	Q0:	3
485	34	Q5:	2	127	323	452	143	277
486	26	Q9:	1	158	432	56
487	23	Q5:	1	351
488	38	Q7:	3	361	320	159	68	154
489	25	Q0:	1	378	291	270	169
490	11	Q8:	3	456	30	167
491	23	Q5:	1	412
492	29	Q9:	0	466	468
493	35	Q3:	0	76	454	170
494	36	Q8:	0	393
495	15	Q1:	2	219	478
496	24	Q1:	0
497	20	Q8:	3	364	486
498	34	Q0:	1	214	368	427
499	14	Q2:	0	57	453	131	49
500	32	Q9:	0	229	499	367	344	360	171
========================================================== 